Route #1: 8 1 9 2 10 11 3 12 17 29 32 40 28 31 21 20 27 37 52 64 68 84 95 96 85 78 69 74 86 97 98 90 79 80 87 91 88 99 92 93 94 100 89 83 77 82 76 81 66 72 71 59 65 75 70 58 57 56 45 38 39 46 47 53 48 41 49 54 60 61 62 55 67 73 63 51 36 44 50 35 43 42 33 34 23 22 30 18 4 13 5 6 14 24 19 25 26 15 16 7
Cost 47346
